job_count = 14 ;
duration = [|6, 14, 3|10, 9, 14|12, 8, 18|20, 20, 3|16, 8, 15|22, 21, 6|8, 3, 15|8, 9, 16|14, 20, 7|5, 10, 14|4, 14, 13|10, 17, 19|26, 8, 4|10, 2, 13|] ;
machine_count = 3 ;
cost = [|20, 21, 47|26, 31, 32|35, 47, 30|39, 41, 43|36, 31, 40|33, 48, 33|23, 30, 54|22, 33, 34|34, 38, 53|10, 48, 51|29, 22, 43|15, 36, 45|36, 26, 31|22, 40, 43|] ;
deadline = [69, 66, 58, 39, 51, 50, 23, 30, 51, 18, 37, 67, 55, 36] ;
release = [45, 25, 32, 0, 38, 32, 9, 12, 10, 1, 9, 42, 39, 5] ;
resource = [|4, 4, 4|7, 7, 7|9, 9, 9|8, 8, 8|4, 4, 4|5, 5, 5|1, 1, 1|7, 7, 7|5, 5, 5|2, 2, 2|4, 4, 4|6, 6, 6|6, 6, 6|9, 9, 9|] ;
capacities = [10, 10, 10] ;
